NAME : instances/50-tsp/instance-9.tsp
COMMENT : No comment
TYPE : TSP
DIMENSION: 50
EDGE_WEIGHT_TYPE : EUC_2D
NODE_COORD_SECTION
1 1743 1109 
2 536 220 
3 1046 172 
4 1660 1152 
5 1390 1272 
6 1509 1165 
7 676 794 
8 289 547 
9 1399 1627 
10 812 632 
11 1617 433 
12 1699 131 
13 1763 1644 
14 1200 1514 
15 1277 1950 
16 324 434 
17 1761 1665 
18 1244 1741 
19 1854 388 
20 1565 1371 
21 271 1722 
22 1504 1162 
23 272 464 
24 732 1854 
25 211 1631 
26 44 653 
27 1578 1525 
28 1652 1831 
29 767 1336 
30 955 351 
31 1663 1661 
32 1674 707 
33 1425 1968 
34 790 1528 
35 403 744 
36 1834 872 
37 0 1050 
38 418 543 
39 81 765 
40 879 1461 
41 893 85 
42 1137 991 
43 1923 735 
44 1189 1012 
45 429 71 
46 1757 162 
47 111 1863 
48 749 114 
49 11 210 
50 244 59 
EOF
